\ This file has been generated by DOcplex
\ ENCODING=ISO-8859-1
\Problem name: random_problem.lp

Minimize
 obj: - 6 x0 - 7 x1 - 4 x2 - 7 x3 + 3 x4 + 10 x5 + 9 x6 - 5 x7 + 7 x8 - 8 x10
      + 4 x11 + 3 x12 - 10 x13 - 2 x14 + 6 x15 + 7 x16 - 5 x17 - 5 x18 + 10 x19
      + [ - 20 x0*x5 + 10 x0*x6 - 10 x0*x8 - 8 x0*x11 - 20 x0*x18 + 20 x1*x5
      + 8 x1*x8 + 16 x1*x12 + 16 x1*x13 - 14 x1*x15 - 10 x2*x4 - 4 x2*x9
      + 18 x2*x12 + 2 x2*x13 - 12 x2*x14 - 2 x3*x4 + 10 x3*x7 + 20 x3*x13
      + 10 x3*x15 - 6 x3*x18 - 18 x4*x12 - 12 x4*x16 + 18 x4*x17 + 8 x5*x8
      + 12 x5*x9 + 4 x5*x19 + 16 x6*x11 + 14 x6*x12 + 2 x6*x14 + 4 x6*x17
      + 20 x7*x10 + 10 x7*x15 + 20 x7*x18 - 10 x7*x19 - 18 x8*x10 + 6 x8*x16
      + 18 x9*x10 + 6 x9*x11 + 14 x9*x13 + 12 x10*x14 - 18 x10*x19 - 10 x11*x17
      + 20 x11*x18 + 14 x12*x17 + 12 x13*x15 - 4 x14*x16 - 10 x14*x19
      - 16 x15*x16 + 4 x16*x19 - 16 x17*x18 ]/2
Subject To
 c0: 2 x0 + x11 + x12 + 2 x13 + 2 x19 = 1
 c1: x0 + x2 - 2 x4 - x12 - x17 = -1
 c2: - 2 x5 - 2 x7 + 2 x14 - 2 x15 - 2 x16 = -2
 c3: - 2 x1 - 2 x2 - 2 x4 + 2 x6 - x18 = -2

Bounds
 0 <= x0 <= 1
 0 <= x1 <= 1
 0 <= x2 <= 1
 0 <= x3 <= 1
 0 <= x4 <= 1
 0 <= x5 <= 1
 0 <= x6 <= 1
 0 <= x7 <= 1
 0 <= x8 <= 1
 0 <= x9 <= 1
 0 <= x10 <= 1
 0 <= x11 <= 1
 0 <= x12 <= 1
 0 <= x13 <= 1
 0 <= x14 <= 1
 0 <= x15 <= 1
 0 <= x16 <= 1
 0 <= x17 <= 1
 0 <= x18 <= 1
 0 <= x19 <= 1

Binaries
 x0 x1 x2 x3 x4 x5 x6 x7 x8 x9 x10 x11 x12 x13 x14 x15 x16 x17 x18 x19
End
